n = 10;
k = 4;
maxsize = 10;
nML = 2;
nCL = 2;
deg = [2, 2, 2, 1, 2, 2, 2, 2, 2, 1];
ML = array2d(1..2, 1..2, [6, 10, 2, 3]);
CL = array2d(1..2, 1..2, [4, 9, 8, 7]);
A = array2d(1..10, 1..10, [ 0, 0, 1, 0, 0, 0, 1, 0, 0, 0, 0, 0, 0, 0, 1, 1, 0, 0, 0, 0, 1, 0, 0, 1, 0, 0, 0, 0, 0, 0, 0, 0, 1, 0, 0, 0, 0, 0, 0, 0, 0, 1, 0, 0, 0, 0, 0, 0, 1, 0, 0, 1, 0, 0, 0, 0, 0, 1, 0, 0, 1, 0, 0, 0, 0, 0, 0, 0, 0, 1, 0, 0, 0, 0, 0, 1, 0, 0, 1, 0, 0, 0, 0, 0, 1, 0, 0, 1, 0, 0, 0, 0, 0, 0, 0, 0, 1, 0, 0, 0 ]);
W = array2d(1..10, 1..10, [ -4, 7, -5, 2, -7, 4, -8, 3, 5, 9, 6, 5, 1, -7, 5, -8, -8, 4, 5, -10, -7, 2, -9, -9, 3, 7, -2, 2, 2, -10, 5, 1, -1, 7, -3, -5, -1, -9, -3, -10, -3, -2, 1, -1, -3, -10, 7, 2, -4, -4, 9, -2, -9, -9, 9, -1, 2, -5, 4, 10, 0, 2, -1, -2, -1, -4, 6, -4, -5, -2, 7, -6, 9, 1, -3, 10, 10, -3, 5, 4, -4, -7, -8, -10, 9, 2, -2, -9, 8, -10, 1, -7, 2, -1, -5, 9, 6, 10, 3, -3 ]);